p td 80 80
0 26
0 61
0 19
1 76
1 49
2 20
3 79
4 79
4 46
5 27
5 47
5 32
6 13
6 62
6 41
6 59
8 46
9 56
9 36
10 28
10 29
10 30
11 49
13 58
13 15
14 56
14 45
16 43
16 66
16 69
17 47
17 48
21 30
21 59
22 73
22 47
23 63
23 31
23 29
24 71
25 64
27 48
28 75
29 48
29 44
30 73
33 62
33 59
33 58
34 46
35 64
36 54
36 50
37 63
38 73
38 39
39 47
40 57
40 72
40 76
41 77
44 55
44 51
45 57
46 48
46 64
50 77
51 64
52 55
55 59
55 72
58 72
59 78
64 79
64 67
65 79
70 77
71 77
73 77
76 79
